20
40.0
0 19 3.79 22.51
1 18 3.74 22.53
2 17 3.76 22.66
3 16 3.79 22.32
4 15 3.81 22.17
5 14 3.87 20.47
6 13 3.93 20.14
7 12 3.86 21.77
8 11 3.77 21.5
9 10 3.75 21.77
10 9 3.75 23.57
11 8 3.71 23.45
12 7 3.68 23.89
13 6 3.69 23.75
14 5 3.67 23.15
15 4 3.78 23.09
16 3 3.61 24.23
17 2 4.13 13.42
18 1 3.73 23.15
